; benchmark generated from python API
(set-info :status unknown)
(declare-datatypes ((RealState 0)) (((RMk1 (rval1 Real)) (RMk2 (rval2 Real)))))
 (assert
 (forall ((|v17:0| Real) )(forall ((|v16:1| Real) )(forall ((|v15:2| Real) )(forall ((|v14:3| Real) )(forall ((|v13:4| Real) )(forall ((|v12:5| Real) )(exists ((|v11:6_st| RealState) (val!10272 Real) )(exists ((|v10:7_st| RealState) (val!10273 Real) )(exists ((|v9:8_st| RealState) (val!10274 Real) )(exists ((|v8:9_st| RealState) (val!10275 Real) )(exists ((|v7:10_st| RealState) (val!10276 Real) )(exists ((|v6:11_st| RealState) (val!10277 Real) )(forall ((|v5:12| Real) )(forall ((|v4:13| Real) )(forall ((|v3:14| Real) )(forall ((|v2:15| Real) )(forall ((|v1:16| Real) )(forall ((|v0:17| Real) )(let ((?x5537 (- 1.0)))
 (let ((?x7525 (* 18.0 |v14:3|)))
 (let ((?x6121 (* 13.0 |v17:0|)))
 (let ((?x286 (- 19.0)))
 (let ((?x7369 (* ?x286 |v14:3|)))
 (let ((?x424 (+ (+ (* (- 9.0) |v5:12|) (* 0.0 (rval2 |v6:11_st|))) (* (- 10.0) |v16:1|))))
 (let ((?x6997 (* 2.0 |v4:13|)))
 (let ((?x4856 (rval2 |v11:6_st|)))
 (let ((?x4741 (* 6.0 ?x4856)))
 (let ((?x753 (* 10.0 |v2:15|)))
 (let ((?x3522 (+ (+ (* (- 7.0) (rval2 |v7:10_st|)) (* (- 8.0) (rval2 |v8:9_st|))) (* 4.0 |v17:0|))))
 (let (($x7520 (<= (+ (+ (+ (+ ?x3522 ?x753) (* (- 7.0) |v13:4|)) ?x4741) ?x6997) 11.0)))
 (let ((?x6156 (- 18.0)))
 (let ((?x2540 (- 20.0)))
 (let ((?x8486 (* ?x2540 |v16:1|)))
 (let ((?x3669 (rval2 |v10:7_st|)))
 (let ((?x363 (* 20.0 ?x3669)))
 (let ((?x4592 (- 4.0)))
 (let ((?x602 (* ?x4592 |v2:15|)))
 (let ((?x439 (rval2 |v6:11_st|)))
 (let ((?x9705 (* 3.0 ?x439)))
 (let ((?x2941 (+ (+ (+ (+ (* 14.0 |v17:0|) (* 4.0 ?x439)) (* 5.0 |v17:0|)) ?x9705) ?x602)))
 (let ((?x8394 (* 15.0 ?x4856)))
 (let ((?x6059 (- 2.0)))
 (let ((?x7874 (* ?x6059 |v4:13|)))
 (let ((?x5210 (* 7.0 |v4:13|)))
 (let ((?x908 (+ (+ (+ (* 16.0 (rval2 |v8:9_st|)) (* (- 12.0) (rval2 |v7:10_st|))) ?x5210) ?x7874)))
 (let (($x4687 (<= (+ (+ (+ ?x908 (* (- 6.0) |v17:0|)) (* (- 6.0) |v16:1|)) ?x8394) ?x2540)))
 (let ((?x2701 (rval2 |v7:10_st|)))
 (let ((?x7122 (- 17.0)))
 (let ((?x4785 (* ?x7122 ?x2701)))
 (let ((?x9493 (* ?x7122 |v0:17|)))
 (let ((?x6043 (+ (+ (+ (+ (* 5.0 |v13:4|) (* 16.0 ?x3669)) (* 11.0 |v14:3|)) ?x9493) (* 14.0 |v15:2|))))
 (let (($x1370 (or (or (<= (+ (+ ?x6043 (* (- 10.0) |v14:3|)) ?x4785) ?x4592) $x4687) (and (<= (+ (+ ?x2941 ?x363) ?x8486) ?x6156) $x7520))))
 (let ((?x9179 (- 9.0)))
 (let ((?x8689 (* 0.0 ?x439)))
 (let ((?x937 (* 2.0 |v5:12|)))
 (let ((?x6791 (* ?x2540 |v5:12|)))
 (let ((?x5147 (+ (+ (+ (* 12.0 (rval2 |v9:8_st|)) (* (- 16.0) |v3:14|)) (* 8.0 |v13:4|)) ?x6791)))
 (let ((?x1454 (* 3.0 |v4:13|)))
 (let ((?x963 (+ (+ (+ (* ?x286 |v2:15|) (* 9.0 |v17:0|)) (* 18.0 (rval2 |v9:8_st|))) (* ?x5537 (rval2 |v9:8_st|)))))
 (let (($x780 (<= (+ (+ (+ ?x963 (* (- 5.0) ?x3669)) (* (- 10.0) ?x2701)) ?x1454) 5.0)))
 (let (($x1286 (and $x780 (<= (+ (+ (+ ?x5147 ?x937) (* (- 8.0) ?x3669)) ?x8689) ?x9179))))
 (let ((?x5679 (rval2 |v9:8_st|)))
 (let ((?x6465 (* 19.0 ?x5679)))
 (let ((?x7254 (* ?x2540 |v4:13|)))
 (let ((?x6209 (* 17.0 |v15:2|)))
 (let ((?x1917 (+ (+ (+ (* (- 13.0) ?x5679) (* (- 11.0) |v17:0|)) (* 6.0 |v14:3|)) ?x6209)))
 (let ((?x8053 (* 5.0 ?x4856)))
 (let ((?x3812 (- 15.0)))
 (let ((?x2803 (* ?x3812 |v5:12|)))
 (let ((?x3237 (- 14.0)))
 (let ((?x2233 (* ?x3237 |v1:16|)))
 (let ((?x1433 (+ (+ (+ (+ (* 20.0 |v14:3|) (* 13.0 ?x2701)) (* 16.0 |v5:12|)) ?x2233) ?x2803)))
 (let (($x4937 (or (<= (+ (+ ?x1433 (* (- 12.0) ?x5679)) ?x8053) 4.0) (<= (+ (+ (+ ?x1917 ?x7254) (* 12.0 ?x3669)) ?x6465) 18.0))))
 (let ((?x8355 (- 12.0)))
 (let ((?x4246 (* 18.0 |v0:17|)))
 (let ((?x5094 (+ (+ (+ (* (- 11.0) |v3:14|) (* ?x286 |v15:2|)) (* (- 8.0) ?x4856)) (* (- 11.0) ?x4856))))
 (let ((?x4286 (* 18.0 ?x4856)))
 (let ((?x9265 (* 13.0 |v4:13|)))
 (let ((?x1687 (- 5.0)))
 (let ((?x1474 (* ?x1687 ?x439)))
 (let ((?x3775 (- 16.0)))
 (let ((?x3977 (* ?x3775 |v2:15|)))
 (let ((?x7308 (+ (+ (+ (+ (* ?x3812 |v4:13|) (* ?x6156 |v14:3|)) (* 3.0 |v17:0|)) ?x3977) ?x1474)))
 (let (($x8330 (and (<= (+ (+ ?x7308 ?x9265) ?x4286) 8.0) (<= (+ (+ (+ ?x5094 (* (- 6.0) ?x3669)) |v16:1|) ?x4246) ?x8355))))
 (let ((?x9405 (* 2.0 |v13:4|)))
 (let ((?x2001 (* 17.0 |v13:4|)))
 (let ((?x3675 (+ (+ (+ ?x3669 (* 11.0 (rval2 |v8:9_st|))) (* ?x3812 ?x4856)) (* ?x5537 |v17:0|))))
 (let ((?x2348 (* 12.0 |v3:14|)))
 (let ((?x504 (* ?x9179 ?x2701)))
 (let ((?x5598 (* 5.0 |v15:2|)))
 (let ((?x2981 (+ (+ (+ (* ?x7122 |v13:4|) (* ?x8355 |v13:4|)) (* ?x3812 |v4:13|)) (* 11.0 |v12:5|))))
 (let (($x1876 (and (<= (+ (+ (+ ?x2981 ?x5598) ?x504) ?x2348) ?x6156) (<= (+ (+ (+ ?x3675 ?x2001) ?x9405) (* (- 11.0) |v12:5|)) ?x8355))))
 (let ((?x5187 (- 6.0)))
 (let ((?x7493 (* 7.0 |v17:0|)))
 (let ((?x148 (* ?x6156 |v0:17|)))
 (let ((?x7648 (* ?x3237 |v17:0|)))
 (let ((?x6096 (+ (+ (+ (* 16.0 |v15:2|) (* (- 3.0) |v1:16|)) (* 14.0 ?x2701)) ?x4741)))
 (let ((?x7640 (+ (+ (+ (+ ?x7874 ?x4856) (* ?x2540 ?x3669)) (* 10.0 |v13:4|)) (* ?x6059 |v13:4|))))
 (let (($x5351 (or (<= (+ (+ ?x7640 (* (- 3.0) ?x5679)) (* (- 7.0) ?x5679)) ?x286) (<= (+ (+ (+ ?x6096 ?x7648) ?x148) ?x7493) ?x5187))))
 (let ((?x369 (* 5.0 |v16:1|)))
 (let ((?x1302 (* 3.0 ?x5679)))
 (let ((?x1621 (* 11.0 |v3:14|)))
 (let ((?x8441 (+ (+ (+ (* 14.0 |v1:16|) (* ?x3812 |v17:0|)) (* ?x4592 (rval2 |v8:9_st|))) (* ?x3775 |v13:4|))))
 (let ((?x1367 (* 0.0 ?x2701)))
 (let ((?x9182 (* 10.0 |v17:0|)))
 (let ((?x1299 (+ (+ (+ (* 17.0 |v4:13|) (* 6.0 |v0:17|)) |v0:17|) ?x2348)))
 (let (($x5761 (or (<= (+ (+ (+ ?x1299 (* (- 8.0) ?x5679)) ?x9182) ?x1367) 9.0) (<= (+ (+ (+ ?x8441 ?x1621) ?x1302) ?x369) 14.0))))
 (let (($x6432 (and (and (or (and $x5761 $x5351) (or $x1876 $x8330)) (and (or $x4937 $x1286) $x1370)) (<= (+ (+ (+ (+ ?x424 (* (- 8.0) |v12:5|)) ?x7369) ?x6121) ?x7525) ?x5537))))
 (let ((?x9370 (* ?x8355 |v4:13|)))
 (let ((?x1622 (* 6.0 |v17:0|)))
 (let ((?x9300 (* 18.0 |v3:14|)))
 (let ((?x3606 (* ?x3812 |v1:16|)))
 (let ((?x1725 (+ (+ (+ (+ (* 6.0 |v5:12|) (* 6.0 |v14:3|)) (* 11.0 |v15:2|)) ?x3606) ?x9300)))
 (let ((?x8174 (* ?x286 |v4:13|)))
 (let ((?x5018 (* ?x6059 |v1:16|)))
 (let ((?x9214 (rval2 |v8:9_st|)))
 (let ((?x9566 (- 10.0)))
 (let ((?x112 (* ?x9566 ?x9214)))
 (let ((?x8637 (+ (+ (+ (+ (* 5.0 ?x9214) (* 19.0 |v14:3|)) ?x112) ?x5018) (* 9.0 |v13:4|))))
 (let (($x4404 (and (<= (+ (+ ?x8637 (* ?x3812 |v15:2|)) ?x8174) ?x3775) (<= (+ (+ ?x1725 ?x1622) ?x9370) ?x8355))))
 (let ((?x1023 (* 16.0 |v14:3|)))
 (let ((?x1770 (+ (+ (+ (+ (* ?x8355 ?x439) ?x8053) (* 14.0 |v4:13|)) (* 18.0 ?x2701)) ?x1023)))
 (let (($x3509 (and (<= (+ (+ ?x1770 (* (- 3.0) ?x9214)) (* ?x7122 |v17:0|)) ?x4592) $x4404)))
 (let ((?x5852 (* ?x2540 |v0:17|)))
 (let ((?x831 (* ?x1687 |v5:12|)))
 (let ((?x4892 (+ (+ (+ (* 17.0 |v3:14|) (* 16.0 |v4:13|)) (* (- 13.0) |v12:5|)) (* ?x5537 ?x4856))))
 (let ((?x4035 (* 19.0 |v12:5|)))
 (let ((?x573 (* 18.0 |v2:15|)))
 (let ((?x7193 (* 10.0 ?x4856)))
 (let ((?x5694 (+ (+ (+ (+ (* ?x5187 |v1:16|) (* ?x3775 |v16:1|)) (* 7.0 |v2:15|)) ?x7193) ?x573)))
 (let ((?x2008 (* ?x1687 |v15:2|)))
 (let ((?x4954 (+ (+ (+ (+ (* 18.0 |v12:5|) ?x6997) (* 9.0 |v16:1|)) (* ?x3775 |v1:16|)) ?x2008)))
 (let (($x9511 (or (<= (+ (+ ?x4954 (* 13.0 |v13:4|)) (* ?x3775 ?x2701)) 14.0) (<= (+ (+ ?x5694 ?x4035) ?x831) ?x6156))))
 (let (($x6273 (and (or $x9511 (<= (+ (+ (+ ?x4892 ?x831) ?x5852) (* ?x6059 ?x9214)) 18.0)) $x3509)))
 (let ((?x7925 (- 3.0)))
 (let ((?x238 (* 9.0 |v17:0|)))
 (let ((?x6208 (* ?x2540 |v17:0|)))
 (let ((?x5122 (* 14.0 ?x3669)))
 (let ((?x460 (+ (+ (+ (+ (* 3.0 |v12:5|) ?x4741) (* 2.0 |v12:5|)) (* 15.0 |v16:1|)) ?x5122)))
 (let ((?x3621 (* 6.0 ?x3669)))
 (let ((?x7219 (+ (+ (+ (* ?x3775 |v16:1|) (* 8.0 |v13:4|)) (* ?x5187 |v13:4|)) (* ?x4592 ?x4856))))
 (let (($x2805 (and (<= (+ (+ (+ ?x7219 (* ?x1687 |v14:3|)) (* ?x3237 |v16:1|)) ?x3621) ?x3775) (<= (+ (+ ?x460 ?x6208) ?x238) ?x7925))))
 (let ((?x8256 (* ?x6156 |v1:16|)))
 (let ((?x8504 (* 10.0 |v5:12|)))
 (let ((?x6079 (+ (+ (+ (+ (* 9.0 ?x439) (* ?x2540 ?x3669)) (* 9.0 |v1:16|)) |v13:4|) ?x8504)))
 (let ((?x7410 (- 8.0)))
 (let ((?x4059 (* ?x5187 |v2:15|)))
 (let ((?x902 (* 11.0 |v14:3|)))
 (let ((?x5153 (+ (+ (+ (+ (* ?x3237 |v12:5|) ?x1622) (* ?x6156 |v12:5|)) (* 16.0 |v5:12|)) ?x902)))
 (let (($x4798 (or (<= (+ (+ ?x5153 ?x4059) (* ?x5187 |v15:2|)) ?x7410) (<= (+ (+ ?x6079 ?x8256) (* ?x6156 ?x5679)) ?x8355))))
 (let ((?x2460 (* ?x286 |v5:12|)))
 (let ((?x3912 (* 4.0 |v1:16|)))
 (let ((?x9308 (- 7.0)))
 (let ((?x6880 (* ?x9308 |v1:16|)))
 (let ((?x8175 (+ (+ (+ (+ (* 7.0 |v2:15|) (* ?x6059 |v0:17|)) (* ?x6156 ?x3669)) ?x7493) ?x6880)))
 (let ((?x694 (* 9.0 |v14:3|)))
 (let ((?x6314 (* ?x9308 |v0:17|)))
 (let ((?x5473 (* 18.0 |v1:16|)))
 (let ((?x9329 (+ (+ (+ (+ (* 9.0 |v1:16|) (* 19.0 ?x439)) (* 20.0 |v0:17|)) ?x5473) ?x6314)))
 (let (($x1690 (and (<= (+ (+ ?x9329 (* ?x3775 |v15:2|)) ?x694) ?x3812) (<= (+ (+ ?x8175 ?x3912) ?x2460) 15.0))))
 (let ((?x5361 (* ?x5187 |v12:5|)))
 (let ((?x1004 (* ?x7122 ?x5679)))
 (let ((?x5417 (* 6.0 |v2:15|)))
 (let ((?x605 (+ (+ (+ (+ (* ?x6059 ?x2701) (* ?x7410 |v4:13|)) (* 2.0 |v17:0|)) ?x5417) ?x1004)))
 (let ((?x7123 (* 13.0 ?x2701)))
 (let ((?x3631 (+ (+ (+ (+ (+ ?x9405 (* (- 13.0) |v5:12|)) ?x5018) (* 4.0 |v4:13|)) ?x7123) (* 0.0 |v14:3|))))
 (let (($x5121 (or (<= (+ ?x3631 (* ?x1687 |v17:0|)) ?x7925) (<= (+ (+ ?x605 (* 14.0 ?x5679)) ?x5361) ?x3775))))
 (let ((?x8538 (* ?x5187 |v13:4|)))
 (let ((?x7468 (- 11.0)))
 (let ((?x6861 (* ?x7468 |v5:12|)))
 (let ((?x2159 (+ (+ (+ (* ?x6156 ?x9214) (* 5.0 |v17:0|)) (* 5.0 |v5:12|)) (* 8.0 |v15:2|))))
 (let ((?x5695 (* 12.0 |v0:17|)))
 (let ((?x4624 (+ (+ (+ (+ (* 16.0 ?x3669) (* ?x7468 |v14:3|)) (* ?x5537 ?x3669)) ?x5695) ?x6465)))
 (let (($x6054 (or (<= (+ (+ ?x4624 (* 17.0 ?x4856)) (* ?x4592 ?x439)) ?x1687) (<= (+ (+ (+ ?x2159 ?x2008) ?x6861) ?x8538) ?x4592))))
 (let ((?x948 (* 17.0 |v14:3|)))
 (let ((?x5545 (* 20.0 |v2:15|)))
 (let ((?x1765 (* 16.0 |v15:2|)))
 (let ((?x9071 (+ (+ (+ (+ (* 19.0 |v4:13|) (* ?x1687 |v13:4|)) (* 20.0 |v3:14|)) ?x1765) ?x5545)))
 (let ((?x5682 (* 8.0 |v3:14|)))
 (let ((?x2269 (* ?x7122 |v2:15|)))
 (let ((?x1235 (* ?x4592 |v0:17|)))
 (let ((?x8432 (* ?x7925 |v3:14|)))
 (let ((?x2028 (+ (+ (+ (+ (* 8.0 ?x2701) (* 5.0 |v4:13|)) (* 13.0 ?x9214)) ?x8432) ?x1235)))
 (let (($x8266 (or (<= (+ (+ ?x2028 ?x2269) ?x5682) 19.0) (<= (+ (+ ?x9071 (* ?x2540 ?x4856)) ?x948) ?x7410))))
 (let ((?x471 (* 7.0 |v12:5|)))
 (let ((?x9159 (* 15.0 ?x5679)))
 (let ((?x4269 (+ (+ (+ (* ?x1687 |v3:14|) (* 20.0 |v12:5|)) (* 18.0 |v17:0|)) (* ?x7925 ?x4856))))
 (let ((?x4083 (* ?x1687 ?x4856)))
 (let ((?x3232 (+ (+ (+ (+ ?x7193 (* 0.0 |v13:4|)) (* 18.0 |v16:1|)) (* 15.0 |v16:1|)) (* ?x7925 |v12:5|))))
 (let (($x9373 (or (<= (+ (+ ?x3232 |v5:12|) ?x4083) 15.0) (<= (+ (+ (+ ?x4269 ?x9159) ?x471) (* 15.0 |v12:5|)) 11.0))))
 (let ((?x687 (* ?x1687 |v3:14|)))
 (let ((?x3071 (* ?x3812 |v13:4|)))
 (let ((?x7938 (+ (+ (+ (* ?x9179 |v0:17|) (* 3.0 |v5:12|)) (* ?x6156 ?x4856)) (* ?x6059 ?x5679))))
 (let ((?x2578 (* ?x3237 |v4:13|)))
 (let ((?x6103 (* ?x286 |v15:2|)))
 (let ((?x1645 (+ (+ (+ (* 5.0 |v17:0|) (* 10.0 ?x9214)) (* ?x6059 |v16:1|)) (* ?x9308 ?x9214))))
 (let (($x5237 (or (<= (+ (+ (+ ?x1645 (* ?x286 ?x4856)) ?x6103) ?x2578) 14.0) (<= (+ (+ (+ ?x7938 ?x3071) ?x687) ?x3669) ?x3812))))
 (let ((?x8179 (* 8.0 |v13:4|)))
 (let ((?x6525 (* ?x9566 |v4:13|)))
 (let ((?x4185 (* 2.0 |v16:1|)))
 (let ((?x309 (+ (+ (+ (+ (+ (* ?x5187 ?x5679) ?x1367) (* ?x9179 |v15:2|)) |v4:13|) ?x4185) ?x6525)))
 (let ((?x7791 (* ?x6156 ?x4856)))
 (let ((?x4265 (* 3.0 |v16:1|)))
 (let ((?x3105 (* 19.0 |v3:14|)))
 (let ((?x2749 (+ (+ (+ (+ (* ?x7410 |v1:16|) (* 15.0 ?x2701)) (* ?x6156 ?x9214)) ?x3105) ?x4265)))
 (let ((?x2830 (* 4.0 ?x2701)))
 (let ((?x3514 (* 19.0 |v17:0|)))
 (let ((?x6538 (+ (+ (+ (+ (* ?x7410 |v5:12|) (* ?x5537 |v1:16|)) ?x363) (* ?x5537 |v2:15|)) ?x3514)))
 (let (($x2082 (or (<= (+ (+ ?x6538 ?x2830) ?x7525) 15.0) (<= (+ (+ ?x2749 (* ?x3237 |v15:2|)) ?x7791) 18.0))))
 (let ((?x5271 (* ?x8355 |v13:4|)))
 (let ((?x6391 (+ (+ (+ (+ (* ?x7410 |v13:4|) (* ?x5187 ?x4856)) ?x7369) (* 9.0 ?x3669)) ?x5271)))
 (let ((?x3519 (* 18.0 |v4:13|)))
 (let ((?x3115 (+ (+ (+ (+ ?x2001 (* ?x4592 |v15:2|)) (* ?x1687 |v2:15|)) (* ?x7468 ?x439)) ?x3519)))
 (let (($x2795 (or (<= (+ (+ ?x3115 (* ?x286 |v12:5|)) ?x8394) 6.0) (<= (+ (+ ?x6391 (* ?x2540 ?x439)) (* ?x9566 |v12:5|)) ?x2540))))
 (let (($x746 (or (or (or $x2795 $x2082) (<= (+ ?x309 ?x8179) ?x7468)) (and (or $x5237 $x9373) (or $x8266 $x6054)))))
 (let ((?x617 (* ?x7468 |v3:14|)))
 (let ((?x7627 (* 15.0 |v1:16|)))
 (let ((?x974 (+ (+ (+ (+ (* 5.0 ?x2701) (* ?x8355 |v3:14|)) (* ?x9179 |v0:17|)) ?x7627) (* ?x3812 |v16:1|))))
 (let ((?x2717 (* 18.0 ?x2701)))
 (let ((?x1244 (+ (+ (+ (+ (* 17.0 |v2:15|) (* ?x8355 ?x4856)) (* 6.0 |v13:4|)) ?x2717) ?x1474)))
 (let (($x2673 (or (<= (+ (+ ?x1244 (* 8.0 |v14:3|)) (* 13.0 |v16:1|)) ?x7122) (<= (+ (+ ?x974 (* ?x9179 ?x439)) ?x617) ?x1687))))
 (let ((?x1712 (* 20.0 ?x439)))
 (let ((?x8975 (* 7.0 ?x439)))
 (let ((?x5698 (* 3.0 |v1:16|)))
 (let ((?x2654 (+ (+ (* (- 13.0) |v0:17|) (* 11.0 |v0:17|)) ?x5698)))
 (let ((?x6708 (* 19.0 |v14:3|)))
 (let ((?x8712 (* ?x9566 ?x3669)))
 (let ((?x978 (* ?x9179 |v3:14|)))
 (let ((?x1986 (+ (+ (+ (+ (* ?x9566 |v3:14|) (* 2.0 ?x3669)) (* 16.0 |v4:13|)) ?x978) ?x8712)))
 (let (($x3900 (or (<= (+ (+ ?x1986 (* ?x2540 ?x9214)) ?x6708) 10.0) (<= (+ (+ (+ (+ ?x2654 ?x8975) ?x4083) ?x1712) ?x1474) 11.0))))
 (let ((?x7878 (* ?x3237 ?x3669)))
 (let ((?x6897 (+ (+ (* ?x3812 |v4:13|) (* ?x5537 |v3:14|)) (* (- 13.0) |v4:13|))))
 (let (($x4659 (<= (+ (+ (+ (+ ?x6897 ?x7878) (* 6.0 ?x2701)) (* 11.0 ?x5679)) ?x1235) ?x7122)))
 (let ((?x6021 (* ?x3775 |v3:14|)))
 (let ((?x4298 (+ (+ (+ (+ (* ?x9566 |v2:15|) ?x7878) ?x937) (* 12.0 |v5:12|)) (* ?x3237 ?x439))))
 (let ((?x5402 (* 4.0 ?x439)))
 (let ((?x5032 (+ (+ (+ (+ (+ (* ?x3812 |v17:0|) ?x1474) |v1:16|) (* 0.0 |v0:17|)) ?x9405) ?x5402)))
 (let ((?x2766 (* ?x286 |v2:15|)))
 (let ((?x8949 (* 7.0 |v15:2|)))
 (let ((?x8723 (* 4.0 |v4:13|)))
 (let ((?x8589 (+ (+ (+ (+ (* 19.0 |v5:12|) ?x8174) (* 9.0 ?x2701)) (* 8.0 ?x2701)) ?x8723)))
 (let ((?x1718 (* 5.0 ?x2701)))
 (let ((?x857 (* 7.0 |v3:14|)))
 (let ((?x8979 (+ (+ (+ (+ (+ (* 8.0 |v5:12|) (* 0.0 ?x9214)) ?x9300) |v15:2|) ?x7254) ?x857)))
 (let ((?x3002 (* 5.0 ?x9214)))
 (let ((?x4513 (* ?x5187 |v5:12|)))
 (let ((?x7042 (+ (+ (+ (+ (+ (* 6.0 |v5:12|) ?x687) ?x9159) (* ?x9308 ?x439)) ?x4513) (* ?x5537 |v14:3|))))
 (let (($x5620 (or (or (<= (+ ?x7042 ?x3002) 8.0) (<= (+ ?x8979 ?x1718) 18.0)) (and (<= (+ (+ ?x8589 ?x8949) ?x2766) ?x9566) (<= (+ ?x5032 ?x2830) 13.0)))))
 (let (($x7209 (and (or $x5620 (or (or (<= (+ (+ ?x4298 ?x6021) ?x6465) 4.0) $x4659) $x3900)) $x2673)))
 (let ((?x3288 (* ?x7925 |v1:16|)))
 (let ((?x239 (* ?x7410 |v3:14|)))
 (let ((?x7820 (+ (+ (+ (+ ?x7123 (* 17.0 ?x9214)) (* 15.0 |v16:1|)) (* 9.0 |v3:14|)) ?x239)))
 (let ((?x6817 (* 18.0 ?x9214)))
 (let ((?x844 (+ (+ (+ (+ (+ ?x2348 ?x1004) (* ?x3237 |v3:14|)) (* ?x8355 ?x439)) ?x6817) (* ?x7468 ?x5679))))
 (let ((?x8115 (* ?x4592 |v4:13|)))
 (let ((?x275 (* ?x3775 |v1:16|)))
 (let ((?x3005 (+ (+ (+ (+ (* ?x8355 |v12:5|) (* ?x7925 ?x2701)) (* 17.0 |v16:1|)) ?x275) ?x8115)))
 (let ((?x1609 (* ?x7468 |v14:3|)))
 (let ((?x2185 (+ (+ (+ (+ ?x8053 ?x1023) (* ?x7925 ?x2701)) (* 20.0 ?x4856)) (* 12.0 |v13:4|))))
 (let (($x3162 (or (<= (+ (+ ?x2185 ?x1609) (* ?x9179 ?x3669)) 20.0) (<= (+ (+ ?x3005 ?x8486) (* ?x5537 ?x439)) 7.0))))
 (let (($x2139 (and $x3162 (or (<= (+ ?x844 |v4:13|) 5.0) (<= (+ (+ ?x7820 ?x3288) ?x471) ?x7925)))))
 (let ((?x8411 (* ?x6059 |v5:12|)))
 (let ((?x3312 (- 13.0)))
 (let ((?x6213 (* ?x3312 |v5:12|)))
 (let ((?x231 (+ (+ (+ (+ (* ?x6059 ?x439) ?x6208) (* ?x1687 |v1:16|)) (* ?x3812 ?x2701)) (* 7.0 ?x4856))))
 (let ((?x9156 (* 3.0 |v2:15|)))
 (let ((?x899 (+ (+ (+ (+ (+ (* ?x1687 |v16:1|) (* 13.0 ?x9214)) ?x4785) ?x8174) ?x2766) ?x5361)))
 (let ((?x7869 (* ?x5187 ?x5679)))
 (let ((?x5292 (* ?x9566 |v2:15|)))
 (let ((?x3987 (+ (+ (+ (+ ?x3071 (* ?x9179 |v16:1|)) (* 17.0 |v1:16|)) (* 14.0 |v5:12|)) ?x5292)))
 (let (($x3011 (and (<= (+ (+ ?x3987 ?x4513) ?x7869) 18.0) (or (<= (+ ?x899 ?x9156) 6.0) (<= (+ (+ ?x231 ?x6213) ?x8411) ?x1687)))))
 (let ((?x3405 (* ?x3237 |v3:14|)))
 (let ((?x3132 (* 6.0 ?x439)))
 (let ((?x6554 (+ (+ (+ (+ (+ ?x504 (* 15.0 |v16:1|)) |v17:0|) ?x7878) (* ?x6156 |v3:14|)) ?x3132)))
 (let ((?x4842 (+ (+ (+ (+ (* ?x7925 ?x3669) (* 4.0 |v5:12|)) ?x7648) (* 17.0 |v17:0|)) ?x1474)))
 (let (($x4214 (and (<= (+ (+ ?x4842 (* 2.0 ?x4856)) ?x112) 2.0) (<= (+ ?x6554 ?x3405) 0.0))))
 (let ((?x1255 (* ?x7410 ?x4856)))
 (let ((?x9158 (+ (+ (+ (+ ?x2233 (* ?x3775 |v5:12|)) (* ?x6059 ?x2701)) (* ?x7468 |v2:15|)) ?x1255)))
 (let ((?x2599 (* 11.0 |v2:15|)))
 (let ((?x2125 (+ (+ (+ (+ (* 10.0 |v1:16|) ?x6209) (* ?x3775 ?x439)) (* 2.0 |v1:16|)) ?x2599)))
 (let (($x3199 (or (<= (+ (+ ?x2125 (* 13.0 ?x3669)) (* ?x8355 |v16:1|)) 8.0) (<= (+ (+ ?x9158 (* ?x9179 ?x4856)) ?x1718) 11.0))))
 (let ((?x3398 (* ?x4592 |v1:16|)))
 (let ((?x9318 (* ?x9179 |v16:1|)))
 (let ((?x5283 (+ (+ (+ (+ (+ (* 4.0 |v2:15|) ?x8712) (* 13.0 |v3:14|)) ?x7627) ?x9318) ?x3398)))
 (let ((?x4390 (* ?x9179 |v15:2|)))
 (let ((?x6398 (* ?x5537 |v1:16|)))
 (let ((?x4219 (+ (+ (+ (+ (+ ?x238 ?x2701) (* ?x6156 ?x439)) (* 6.0 |v0:17|)) ?x6398) (* ?x1687 ?x9214))))
 (let ((?x8720 (* ?x8355 |v2:15|)))
 (let ((?x4776 (+ (+ (+ (+ (+ (+ ?x9705 ?x2717) ?x2001) ?x6208) (* ?x7410 |v15:2|)) ?x8720) (* ?x9179 |v17:0|))))
 (let ((?x2390 (* 16.0 |v3:14|)))
 (let ((?x6207 (* ?x6156 ?x3669)))
 (let ((?x5 (* 19.0 |v4:13|)))
 (let ((?x1953 (+ (+ (* ?x3812 |v3:14|) (* ?x5537 |v0:17|)) ?x5)))
 (let (($x6018 (<= (+ (+ (+ (+ ?x1953 ?x6207) (* ?x3312 |v17:0|)) (* ?x7925 |v14:3|)) ?x2390) 15.0)))
 (let (($x4296 (or (and $x6018 (<= ?x4776 ?x286)) (and (<= (+ ?x4219 ?x4390) ?x8355) (<= (+ ?x5283 ?x6997) ?x6156)))))
 (let ((?x6766 (* ?x9179 |v1:16|)))
 (let ((?x3610 (* ?x6156 |v4:13|)))
 (let ((?x6078 (+ (+ (+ (+ (* ?x4592 |v3:14|) (* ?x3237 |v13:4|)) (* ?x4592 ?x3669)) ?x7525) ?x3610)))
 (let (($x4799 (and (<= (+ (+ ?x6078 ?x6766) ?x4083) 3.0) (and (and (or $x4296 (and $x3199 $x4214)) (and $x3011 $x2139)) $x7209))))
 (let (($x6497 (or $x4799 (or (or $x746 (and (and (and $x5121 $x1690) (or $x4798 $x2805)) $x6273)) $x6432))))
 (let (($x4184 (not (= |v6:11_st| (RMk1 val!10277)))))
 (let (($x3947 (not (= |v7:10_st| (RMk1 val!10276)))))
 (let (($x3746 (not (= |v8:9_st| (RMk1 val!10275)))))
 (let (($x3505 (not (= |v9:8_st| (RMk1 val!10274)))))
 (let (($x1202 (not (= |v10:7_st| (RMk1 val!10273)))))
 (let (($x2351 (not (= |v11:6_st| (RMk1 val!10272)))))
 (and $x2351 $x1202 $x3505 $x3746 $x3947 $x4184 $x6497))))))))))))))))))))))))))))))))))))))))))))))))))))))))))))))))))))))))))))))))))))))))))))))))))))))))))))))))))))))))))))))))))))))))))))))))))))))))))))))))))))))))))))))))))))))))))))))))))))))))))))))))))))))))))))))))))))))))))))))))))))))))))))))))))))))))))))))))))))))))))))))))))
 )
 )
 )
 )
 )
 )
 )
 )
 )
 )
 )
 )
 )
 )
 )
 )
 )
 )
(check-sat)
